words_hard_train/6472.qaiger
aag 82 18 0 1 64
2
4
8
12
16
20
24
28
36
44
54
62
66
80
108
110
128
130
165
6 3 5
10 6 9
14 10 13
18 14 17
22 18 20
26 22 25
30 26 28
32 11 12
34 33 15
38 35 37
40 15 16
42 41 19
46 43 45
48 39 47
50 7 8
52 51 11
56 52 54
58 34 36
60 57 59
64 62 21
68 66 2
70 65 69
72 67 3
74 71 73
76 2 4
78 77 7
82 78 80
84 75 83
86 79 81
88 85 87
90 53 55
92 88 91
94 60 93
96 48 95
98 42 44
100 97 99
102 18 25
104 19 24
106 103 105
112 109 111
114 108 110
116 113 115
118 107 117
120 101 119
122 106 116
124 121 123
126 31 124
132 128 131
134 129 130
136 133 135
138 137 114
140 136 115
142 139 141
144 126 142
146 143 125
148 30 146
150 145 149
152 102 21
154 152 29
156 153 28
158 155 157
160 158 27
162 160 147
164 150 163
i0 2 y1[1]
i1 2 y1[2]
i2 2 y1[3]
i3 2 y1[4]
i4 2 y1[5]
i5 2 y1[0]
i6 2 y1[6]
i7 2 y1[7]
i8 2 y2[4]
i9 2 y2[5]
i10 2 y2[3]
i11 2 y2[0]
i12 2 y2[1]
i13 2 y2[2]
i14 2 y2[6]
i15 1 x2[0]
i16 2 y2[7]
i17 1 x2[1]
o0 bv[0]
c
simplified
  <
    add
      2 y2
      << 6
        1 x2
    subtract
      2 y1
      1
