words_hard_train/6472.qaiger.qdimacs
p cnf 82 193
a 65 55 0
e 1 2 3 4 5 6 7 8 9 10 11 12 13 14 15 16 17 18 19 20 21 22 23 24 25 26 27 28 29 30 31 32 33 34 35 36 37 38 39 40 41 42 43 44 45 46 47 48 49 50 51 52 53 54 56 57 58 59 60 61 62 63 64 66 67 68 69 70 71 72 73 74 75 76 77 78 79 80 81 82 0
1 2 3 0
-1 -3 0
-2 -3 0
-3 4 5 0
3 -5 0
-4 -5 0
-5 6 7 0
5 -7 0
-6 -7 0
-7 8 9 0
7 -9 0
-8 -9 0
-9 -10 11 0
9 -11 0
10 -11 0
-11 12 13 0
11 -13 0
-12 -13 0
-13 -14 15 0
13 -15 0
14 -15 0
5 -6 16 0
-5 -16 0
6 -16 0
16 7 17 0
-16 -17 0
-7 -17 0
17 18 19 0
-17 -19 0
-18 -19 0
7 -8 20 0
-7 -20 0
8 -20 0
20 9 21 0
-20 -21 0
-9 -21 0
21 22 23 0
-21 -23 0
-22 -23 0
19 23 24 0
-19 -24 0
-23 -24 0
3 -4 25 0
-3 -25 0
4 -25 0
25 5 26 0
-25 -26 0
-5 -26 0
-26 -27 28 0
26 -28 0
27 -28 0
-17 -18 29 0
17 -29 0
18 -29 0
28 29 30 0
-28 -30 0
-29 -30 0
-31 10 32 0
31 -32 0
-10 -32 0
-33 -1 34 0
33 -34 0
1 -34 0
32 34 35 0
-32 -35 0
-34 -35 0
33 1 36 0
-33 -36 0
-1 -36 0
35 36 37 0
-35 -37 0
-36 -37 0
-1 -2 38 0
1 -38 0
2 -38 0
38 3 39 0
-38 -39 0
-3 -39 0
-39 -40 41 0
39 -41 0
40 -41 0
37 41 42 0
-37 -42 0
-41 -42 0
39 40 43 0
-39 -43 0
-40 -43 0
42 43 44 0
-42 -44 0
-43 -44 0
26 27 45 0
-26 -45 0
-27 -45 0
-44 45 46 0
44 -46 0
-45 -46 0
-30 46 47 0
30 -47 0
-46 -47 0
-24 47 48 0
24 -48 0
-47 -48 0
-21 -22 49 0
21 -49 0
22 -49 0
48 49 50 0
-48 -50 0
-49 -50 0
-9 12 51 0
9 -51 0
-12 -51 0
9 -12 52 0
-9 -52 0
12 -52 0
51 52 53 0
-51 -53 0
-52 -53 0
54 55 56 0
-54 -56 0
-55 -56 0
-54 -55 57 0
54 -57 0
55 -57 0
56 57 58 0
-56 -58 0
-57 -58 0
53 58 59 0
-53 -59 0
-58 -59 0
50 59 60 0
-50 -60 0
-59 -60 0
-53 -58 61 0
53 -61 0
58 -61 0
60 61 62 0
-60 -62 0
-61 -62 0
15 -62 63 0
-15 -63 0
62 -63 0
-64 65 66 0
64 -66 0
-65 -66 0
64 -65 67 0
-64 -67 0
65 -67 0
66 67 68 0
-66 -68 0
-67 -68 0
68 -57 69 0
-68 -69 0
57 -69 0
-68 57 70 0
68 -70 0
-57 -70 0
69 70 71 0
-69 -71 0
-70 -71 0
-63 -71 72 0
63 -72 0
71 -72 0
71 62 73 0
-71 -73 0
-62 -73 0
-15 -73 74 0
15 -74 0
73 -74 0
72 74 75 0
-72 -75 0
-74 -75 0
-51 10 76 0
51 -76 0
-10 -76 0
-76 14 77 0
76 -77 0
-14 -77 0
76 -14 78 0
-76 -78 0
14 -78 0
77 78 79 0
-77 -79 0
-78 -79 0
-79 13 80 0
79 -80 0
-13 -80 0
-80 73 81 0
80 -81 0
-73 -81 0
-75 81 82 0
75 -82 0
-81 -82 0
-82 0
